data;

set A := 957052138 729756599 657270537 981242609 310964105 812158561 869942673 274896474 681570283 949655119 170910315 92770127 57506298 333652510 392760126 827990257 65632231 303454917 454903961 664670300 748989809 518222037 86390070 522415079 741910302 395368890 938779962 298445922 832667007 807514872 709037425 19461719 950123629 68467056 783577236 31960395 710186064 999675546 99979908 468030203 24415060 169946059 217687437 262499490 45615283 607947118 664930726 563117615 429313008 746192972 840183726 97763729 941211160 47167174 880151726 413316077 85628672 297448983 284597530 917337827 481510539 95939476 323615249 346287566;
param T := 16000000000;

end;
